(set-logic QF_LRA)
(declare-fun X0 () Real )
(declare-fun Y0 () Real )
(declare-fun X1 () Real )
(declare-fun Y1 () Real )
(declare-fun X2 () Real )
(declare-fun Y2 () Real )
(declare-fun X3 () Real )
(declare-fun Y3 () Real )
(declare-fun X4 () Real )
(declare-fun Y4 () Real )
(declare-fun X5 () Real )
(declare-fun Y5 () Real )
(declare-fun X6 () Real )
(declare-fun Y6 () Real )
(declare-fun X7 () Real )
(declare-fun Y7 () Real )
(declare-fun X8 () Real )
(declare-fun Y8 () Real )
(declare-fun X9 () Real )
(declare-fun Y9 () Real )
(declare-fun X10 () Real )
(declare-fun Y10 () Real )
(declare-fun X11 () Real )
(declare-fun Y11 () Real )
(declare-fun X12 () Real )
(declare-fun Y12 () Real )
(declare-fun X13 () Real )
(declare-fun Y13 () Real )
(declare-fun X14 () Real )
(declare-fun Y14 () Real )
(declare-fun Z () Real )
(assert ( and  
( or ( <= ( + X0 16 ) X1 )  ( <= ( + X1 90 ) X0 )  ( <= ( + Y0 45 ) Y1 )  ( <= ( + Y1 28 ) Y0 )  )
( or ( <= ( + X0 16 ) X2 )  ( <= ( + X2 98 ) X0 )  ( <= ( + Y0 45 ) Y2 )  ( <= ( + Y2 24 ) Y0 )  )
( or ( <= ( + X0 16 ) X3 )  ( <= ( + X3 76 ) X0 )  ( <= ( + Y0 45 ) Y3 )  ( <= ( + Y3 96 ) Y0 )  )
( or ( <= ( + X0 16 ) X4 )  ( <= ( + X4 11 ) X0 )  ( <= ( + Y0 45 ) Y4 )  ( <= ( + Y4 60 ) Y0 )  )
( or ( <= ( + X0 16 ) X5 )  ( <= ( + X5 15 ) X0 )  ( <= ( + Y0 45 ) Y5 )  ( <= ( + Y5 21 ) Y0 )  )
( or ( <= ( + X0 16 ) X6 )  ( <= ( + X6 61 ) X0 )  ( <= ( + Y0 45 ) Y6 )  ( <= ( + Y6 89 ) Y0 )  )
( or ( <= ( + X0 16 ) X7 )  ( <= ( + X7 2 ) X0 )  ( <= ( + Y0 45 ) Y7 )  ( <= ( + Y7 3 ) Y0 )  )
( or ( <= ( + X0 16 ) X8 )  ( <= ( + X8 53 ) X0 )  ( <= ( + Y0 45 ) Y8 )  ( <= ( + Y8 33 ) Y0 )  )
( or ( <= ( + X0 16 ) X9 )  ( <= ( + X9 77 ) X0 )  ( <= ( + Y0 45 ) Y9 )  ( <= ( + Y9 92 ) Y0 )  )
( or ( <= ( + X0 16 ) X10 )  ( <= ( + X10 27 ) X0 )  ( <= ( + Y0 45 ) Y10 )  ( <= ( + Y10 86 ) Y0 )  )
( or ( <= ( + X0 16 ) X11 )  ( <= ( + X11 22 ) X0 )  ( <= ( + Y0 45 ) Y11 )  ( <= ( + Y11 43 ) Y0 )  )
( or ( <= ( + X0 16 ) X12 )  ( <= ( + X12 26 ) X0 )  ( <= ( + Y0 45 ) Y12 )  ( <= ( + Y12 2 ) Y0 )  )
( or ( <= ( + X0 16 ) X13 )  ( <= ( + X13 36 ) X0 )  ( <= ( + Y0 45 ) Y13 )  ( <= ( + Y13 99 ) Y0 )  )
( or ( <= ( + X0 16 ) X14 )  ( <= ( + X14 3 ) X0 )  ( <= ( + Y0 45 ) Y14 )  ( <= ( + Y14 63 ) Y0 )  )
( or ( <= ( + X1 90 ) X2 )  ( <= ( + X2 98 ) X1 )  ( <= ( + Y1 28 ) Y2 )  ( <= ( + Y2 24 ) Y1 )  )
( or ( <= ( + X1 90 ) X3 )  ( <= ( + X3 76 ) X1 )  ( <= ( + Y1 28 ) Y3 )  ( <= ( + Y3 96 ) Y1 )  )
( or ( <= ( + X1 90 ) X4 )  ( <= ( + X4 11 ) X1 )  ( <= ( + Y1 28 ) Y4 )  ( <= ( + Y4 60 ) Y1 )  )
( or ( <= ( + X1 90 ) X5 )  ( <= ( + X5 15 ) X1 )  ( <= ( + Y1 28 ) Y5 )  ( <= ( + Y5 21 ) Y1 )  )
( or ( <= ( + X1 90 ) X6 )  ( <= ( + X6 61 ) X1 )  ( <= ( + Y1 28 ) Y6 )  ( <= ( + Y6 89 ) Y1 )  )
( or ( <= ( + X1 90 ) X7 )  ( <= ( + X7 2 ) X1 )  ( <= ( + Y1 28 ) Y7 )  ( <= ( + Y7 3 ) Y1 )  )
( or ( <= ( + X1 90 ) X8 )  ( <= ( + X8 53 ) X1 )  ( <= ( + Y1 28 ) Y8 )  ( <= ( + Y8 33 ) Y1 )  )
( or ( <= ( + X1 90 ) X9 )  ( <= ( + X9 77 ) X1 )  ( <= ( + Y1 28 ) Y9 )  ( <= ( + Y9 92 ) Y1 )  )
( or ( <= ( + X1 90 ) X10 )  ( <= ( + X10 27 ) X1 )  ( <= ( + Y1 28 ) Y10 )  ( <= ( + Y10 86 ) Y1 )  )
( or ( <= ( + X1 90 ) X11 )  ( <= ( + X11 22 ) X1 )  ( <= ( + Y1 28 ) Y11 )  ( <= ( + Y11 43 ) Y1 )  )
( or ( <= ( + X1 90 ) X12 )  ( <= ( + X12 26 ) X1 )  ( <= ( + Y1 28 ) Y12 )  ( <= ( + Y12 2 ) Y1 )  )
( or ( <= ( + X1 90 ) X13 )  ( <= ( + X13 36 ) X1 )  ( <= ( + Y1 28 ) Y13 )  ( <= ( + Y13 99 ) Y1 )  )
( or ( <= ( + X1 90 ) X14 )  ( <= ( + X14 3 ) X1 )  ( <= ( + Y1 28 ) Y14 )  ( <= ( + Y14 63 ) Y1 )  )
( or ( <= ( + X2 98 ) X3 )  ( <= ( + X3 76 ) X2 )  ( <= ( + Y2 24 ) Y3 )  ( <= ( + Y3 96 ) Y2 )  )
( or ( <= ( + X2 98 ) X4 )  ( <= ( + X4 11 ) X2 )  ( <= ( + Y2 24 ) Y4 )  ( <= ( + Y4 60 ) Y2 )  )
( or ( <= ( + X2 98 ) X5 )  ( <= ( + X5 15 ) X2 )  ( <= ( + Y2 24 ) Y5 )  ( <= ( + Y5 21 ) Y2 )  )
( or ( <= ( + X2 98 ) X6 )  ( <= ( + X6 61 ) X2 )  ( <= ( + Y2 24 ) Y6 )  ( <= ( + Y6 89 ) Y2 )  )
( or ( <= ( + X2 98 ) X7 )  ( <= ( + X7 2 ) X2 )  ( <= ( + Y2 24 ) Y7 )  ( <= ( + Y7 3 ) Y2 )  )
( or ( <= ( + X2 98 ) X8 )  ( <= ( + X8 53 ) X2 )  ( <= ( + Y2 24 ) Y8 )  ( <= ( + Y8 33 ) Y2 )  )
( or ( <= ( + X2 98 ) X9 )  ( <= ( + X9 77 ) X2 )  ( <= ( + Y2 24 ) Y9 )  ( <= ( + Y9 92 ) Y2 )  )
( or ( <= ( + X2 98 ) X10 )  ( <= ( + X10 27 ) X2 )  ( <= ( + Y2 24 ) Y10 )  ( <= ( + Y10 86 ) Y2 )  )
( or ( <= ( + X2 98 ) X11 )  ( <= ( + X11 22 ) X2 )  ( <= ( + Y2 24 ) Y11 )  ( <= ( + Y11 43 ) Y2 )  )
( or ( <= ( + X2 98 ) X12 )  ( <= ( + X12 26 ) X2 )  ( <= ( + Y2 24 ) Y12 )  ( <= ( + Y12 2 ) Y2 )  )
( or ( <= ( + X2 98 ) X13 )  ( <= ( + X13 36 ) X2 )  ( <= ( + Y2 24 ) Y13 )  ( <= ( + Y13 99 ) Y2 )  )
( or ( <= ( + X2 98 ) X14 )  ( <= ( + X14 3 ) X2 )  ( <= ( + Y2 24 ) Y14 )  ( <= ( + Y14 63 ) Y2 )  )
( or ( <= ( + X3 76 ) X4 )  ( <= ( + X4 11 ) X3 )  ( <= ( + Y3 96 ) Y4 )  ( <= ( + Y4 60 ) Y3 )  )
( or ( <= ( + X3 76 ) X5 )  ( <= ( + X5 15 ) X3 )  ( <= ( + Y3 96 ) Y5 )  ( <= ( + Y5 21 ) Y3 )  )
( or ( <= ( + X3 76 ) X6 )  ( <= ( + X6 61 ) X3 )  ( <= ( + Y3 96 ) Y6 )  ( <= ( + Y6 89 ) Y3 )  )
( or ( <= ( + X3 76 ) X7 )  ( <= ( + X7 2 ) X3 )  ( <= ( + Y3 96 ) Y7 )  ( <= ( + Y7 3 ) Y3 )  )
( or ( <= ( + X3 76 ) X8 )  ( <= ( + X8 53 ) X3 )  ( <= ( + Y3 96 ) Y8 )  ( <= ( + Y8 33 ) Y3 )  )
( or ( <= ( + X3 76 ) X9 )  ( <= ( + X9 77 ) X3 )  ( <= ( + Y3 96 ) Y9 )  ( <= ( + Y9 92 ) Y3 )  )
( or ( <= ( + X3 76 ) X10 )  ( <= ( + X10 27 ) X3 )  ( <= ( + Y3 96 ) Y10 )  ( <= ( + Y10 86 ) Y3 )  )
( or ( <= ( + X3 76 ) X11 )  ( <= ( + X11 22 ) X3 )  ( <= ( + Y3 96 ) Y11 )  ( <= ( + Y11 43 ) Y3 )  )
( or ( <= ( + X3 76 ) X12 )  ( <= ( + X12 26 ) X3 )  ( <= ( + Y3 96 ) Y12 )  ( <= ( + Y12 2 ) Y3 )  )
( or ( <= ( + X3 76 ) X13 )  ( <= ( + X13 36 ) X3 )  ( <= ( + Y3 96 ) Y13 )  ( <= ( + Y13 99 ) Y3 )  )
( or ( <= ( + X3 76 ) X14 )  ( <= ( + X14 3 ) X3 )  ( <= ( + Y3 96 ) Y14 )  ( <= ( + Y14 63 ) Y3 )  )
( or ( <= ( + X4 11 ) X5 )  ( <= ( + X5 15 ) X4 )  ( <= ( + Y4 60 ) Y5 )  ( <= ( + Y5 21 ) Y4 )  )
( or ( <= ( + X4 11 ) X6 )  ( <= ( + X6 61 ) X4 )  ( <= ( + Y4 60 ) Y6 )  ( <= ( + Y6 89 ) Y4 )  )
( or ( <= ( + X4 11 ) X7 )  ( <= ( + X7 2 ) X4 )  ( <= ( + Y4 60 ) Y7 )  ( <= ( + Y7 3 ) Y4 )  )
( or ( <= ( + X4 11 ) X8 )  ( <= ( + X8 53 ) X4 )  ( <= ( + Y4 60 ) Y8 )  ( <= ( + Y8 33 ) Y4 )  )
( or ( <= ( + X4 11 ) X9 )  ( <= ( + X9 77 ) X4 )  ( <= ( + Y4 60 ) Y9 )  ( <= ( + Y9 92 ) Y4 )  )
( or ( <= ( + X4 11 ) X10 )  ( <= ( + X10 27 ) X4 )  ( <= ( + Y4 60 ) Y10 )  ( <= ( + Y10 86 ) Y4 )  )
( or ( <= ( + X4 11 ) X11 )  ( <= ( + X11 22 ) X4 )  ( <= ( + Y4 60 ) Y11 )  ( <= ( + Y11 43 ) Y4 )  )
( or ( <= ( + X4 11 ) X12 )  ( <= ( + X12 26 ) X4 )  ( <= ( + Y4 60 ) Y12 )  ( <= ( + Y12 2 ) Y4 )  )
( or ( <= ( + X4 11 ) X13 )  ( <= ( + X13 36 ) X4 )  ( <= ( + Y4 60 ) Y13 )  ( <= ( + Y13 99 ) Y4 )  )
( or ( <= ( + X4 11 ) X14 )  ( <= ( + X14 3 ) X4 )  ( <= ( + Y4 60 ) Y14 )  ( <= ( + Y14 63 ) Y4 )  )
( or ( <= ( + X5 15 ) X6 )  ( <= ( + X6 61 ) X5 )  ( <= ( + Y5 21 ) Y6 )  ( <= ( + Y6 89 ) Y5 )  )
( or ( <= ( + X5 15 ) X7 )  ( <= ( + X7 2 ) X5 )  ( <= ( + Y5 21 ) Y7 )  ( <= ( + Y7 3 ) Y5 )  )
( or ( <= ( + X5 15 ) X8 )  ( <= ( + X8 53 ) X5 )  ( <= ( + Y5 21 ) Y8 )  ( <= ( + Y8 33 ) Y5 )  )
( or ( <= ( + X5 15 ) X9 )  ( <= ( + X9 77 ) X5 )  ( <= ( + Y5 21 ) Y9 )  ( <= ( + Y9 92 ) Y5 )  )
( or ( <= ( + X5 15 ) X10 )  ( <= ( + X10 27 ) X5 )  ( <= ( + Y5 21 ) Y10 )  ( <= ( + Y10 86 ) Y5 )  )
( or ( <= ( + X5 15 ) X11 )  ( <= ( + X11 22 ) X5 )  ( <= ( + Y5 21 ) Y11 )  ( <= ( + Y11 43 ) Y5 )  )
( or ( <= ( + X5 15 ) X12 )  ( <= ( + X12 26 ) X5 )  ( <= ( + Y5 21 ) Y12 )  ( <= ( + Y12 2 ) Y5 )  )
( or ( <= ( + X5 15 ) X13 )  ( <= ( + X13 36 ) X5 )  ( <= ( + Y5 21 ) Y13 )  ( <= ( + Y13 99 ) Y5 )  )
( or ( <= ( + X5 15 ) X14 )  ( <= ( + X14 3 ) X5 )  ( <= ( + Y5 21 ) Y14 )  ( <= ( + Y14 63 ) Y5 )  )
( or ( <= ( + X6 61 ) X7 )  ( <= ( + X7 2 ) X6 )  ( <= ( + Y6 89 ) Y7 )  ( <= ( + Y7 3 ) Y6 )  )
( or ( <= ( + X6 61 ) X8 )  ( <= ( + X8 53 ) X6 )  ( <= ( + Y6 89 ) Y8 )  ( <= ( + Y8 33 ) Y6 )  )
( or ( <= ( + X6 61 ) X9 )  ( <= ( + X9 77 ) X6 )  ( <= ( + Y6 89 ) Y9 )  ( <= ( + Y9 92 ) Y6 )  )
( or ( <= ( + X6 61 ) X10 )  ( <= ( + X10 27 ) X6 )  ( <= ( + Y6 89 ) Y10 )  ( <= ( + Y10 86 ) Y6 )  )
( or ( <= ( + X6 61 ) X11 )  ( <= ( + X11 22 ) X6 )  ( <= ( + Y6 89 ) Y11 )  ( <= ( + Y11 43 ) Y6 )  )
( or ( <= ( + X6 61 ) X12 )  ( <= ( + X12 26 ) X6 )  ( <= ( + Y6 89 ) Y12 )  ( <= ( + Y12 2 ) Y6 )  )
( or ( <= ( + X6 61 ) X13 )  ( <= ( + X13 36 ) X6 )  ( <= ( + Y6 89 ) Y13 )  ( <= ( + Y13 99 ) Y6 )  )
( or ( <= ( + X6 61 ) X14 )  ( <= ( + X14 3 ) X6 )  ( <= ( + Y6 89 ) Y14 )  ( <= ( + Y14 63 ) Y6 )  )
( or ( <= ( + X7 2 ) X8 )  ( <= ( + X8 53 ) X7 )  ( <= ( + Y7 3 ) Y8 )  ( <= ( + Y8 33 ) Y7 )  )
( or ( <= ( + X7 2 ) X9 )  ( <= ( + X9 77 ) X7 )  ( <= ( + Y7 3 ) Y9 )  ( <= ( + Y9 92 ) Y7 )  )
( or ( <= ( + X7 2 ) X10 )  ( <= ( + X10 27 ) X7 )  ( <= ( + Y7 3 ) Y10 )  ( <= ( + Y10 86 ) Y7 )  )
( or ( <= ( + X7 2 ) X11 )  ( <= ( + X11 22 ) X7 )  ( <= ( + Y7 3 ) Y11 )  ( <= ( + Y11 43 ) Y7 )  )
( or ( <= ( + X7 2 ) X12 )  ( <= ( + X12 26 ) X7 )  ( <= ( + Y7 3 ) Y12 )  ( <= ( + Y12 2 ) Y7 )  )
( or ( <= ( + X7 2 ) X13 )  ( <= ( + X13 36 ) X7 )  ( <= ( + Y7 3 ) Y13 )  ( <= ( + Y13 99 ) Y7 )  )
( or ( <= ( + X7 2 ) X14 )  ( <= ( + X14 3 ) X7 )  ( <= ( + Y7 3 ) Y14 )  ( <= ( + Y14 63 ) Y7 )  )
( or ( <= ( + X8 53 ) X9 )  ( <= ( + X9 77 ) X8 )  ( <= ( + Y8 33 ) Y9 )  ( <= ( + Y9 92 ) Y8 )  )
( or ( <= ( + X8 53 ) X10 )  ( <= ( + X10 27 ) X8 )  ( <= ( + Y8 33 ) Y10 )  ( <= ( + Y10 86 ) Y8 )  )
( or ( <= ( + X8 53 ) X11 )  ( <= ( + X11 22 ) X8 )  ( <= ( + Y8 33 ) Y11 )  ( <= ( + Y11 43 ) Y8 )  )
( or ( <= ( + X8 53 ) X12 )  ( <= ( + X12 26 ) X8 )  ( <= ( + Y8 33 ) Y12 )  ( <= ( + Y12 2 ) Y8 )  )
( or ( <= ( + X8 53 ) X13 )  ( <= ( + X13 36 ) X8 )  ( <= ( + Y8 33 ) Y13 )  ( <= ( + Y13 99 ) Y8 )  )
( or ( <= ( + X8 53 ) X14 )  ( <= ( + X14 3 ) X8 )  ( <= ( + Y8 33 ) Y14 )  ( <= ( + Y14 63 ) Y8 )  )
( or ( <= ( + X9 77 ) X10 )  ( <= ( + X10 27 ) X9 )  ( <= ( + Y9 92 ) Y10 )  ( <= ( + Y10 86 ) Y9 )  )
( or ( <= ( + X9 77 ) X11 )  ( <= ( + X11 22 ) X9 )  ( <= ( + Y9 92 ) Y11 )  ( <= ( + Y11 43 ) Y9 )  )
( or ( <= ( + X9 77 ) X12 )  ( <= ( + X12 26 ) X9 )  ( <= ( + Y9 92 ) Y12 )  ( <= ( + Y12 2 ) Y9 )  )
( or ( <= ( + X9 77 ) X13 )  ( <= ( + X13 36 ) X9 )  ( <= ( + Y9 92 ) Y13 )  ( <= ( + Y13 99 ) Y9 )  )
( or ( <= ( + X9 77 ) X14 )  ( <= ( + X14 3 ) X9 )  ( <= ( + Y9 92 ) Y14 )  ( <= ( + Y14 63 ) Y9 )  )
( or ( <= ( + X10 27 ) X11 )  ( <= ( + X11 22 ) X10 )  ( <= ( + Y10 86 ) Y11 )  ( <= ( + Y11 43 ) Y10 )  )
( or ( <= ( + X10 27 ) X12 )  ( <= ( + X12 26 ) X10 )  ( <= ( + Y10 86 ) Y12 )  ( <= ( + Y12 2 ) Y10 )  )
( or ( <= ( + X10 27 ) X13 )  ( <= ( + X13 36 ) X10 )  ( <= ( + Y10 86 ) Y13 )  ( <= ( + Y13 99 ) Y10 )  )
( or ( <= ( + X10 27 ) X14 )  ( <= ( + X14 3 ) X10 )  ( <= ( + Y10 86 ) Y14 )  ( <= ( + Y14 63 ) Y10 )  )
( or ( <= ( + X11 22 ) X12 )  ( <= ( + X12 26 ) X11 )  ( <= ( + Y11 43 ) Y12 )  ( <= ( + Y12 2 ) Y11 )  )
( or ( <= ( + X11 22 ) X13 )  ( <= ( + X13 36 ) X11 )  ( <= ( + Y11 43 ) Y13 )  ( <= ( + Y13 99 ) Y11 )  )
( or ( <= ( + X11 22 ) X14 )  ( <= ( + X14 3 ) X11 )  ( <= ( + Y11 43 ) Y14 )  ( <= ( + Y14 63 ) Y11 )  )
( or ( <= ( + X12 26 ) X13 )  ( <= ( + X13 36 ) X12 )  ( <= ( + Y12 2 ) Y13 )  ( <= ( + Y13 99 ) Y12 )  )
( or ( <= ( + X12 26 ) X14 )  ( <= ( + X14 3 ) X12 )  ( <= ( + Y12 2 ) Y14 )  ( <= ( + Y14 63 ) Y12 )  )
( or ( <= ( + X13 36 ) X14 )  ( <= ( + X14 3 ) X13 )  ( <= ( + Y13 99 ) Y14 )  ( <= ( + Y14 63 ) Y13 )  )
( >= X0 0)
( <= ( + X0 16) Z)
( >= Y0 0)
( <= ( + Y0 45 ) 100)
( >= X1 0)
( <= ( + X1 90) Z)
( >= Y1 0)
( <= ( + Y1 28 ) 100)
( >= X2 0)
( <= ( + X2 98) Z)
( >= Y2 0)
( <= ( + Y2 24 ) 100)
( >= X3 0)
( <= ( + X3 76) Z)
( >= Y3 0)
( <= ( + Y3 96 ) 100)
( >= X4 0)
( <= ( + X4 11) Z)
( >= Y4 0)
( <= ( + Y4 60 ) 100)
( >= X5 0)
( <= ( + X5 15) Z)
( >= Y5 0)
( <= ( + Y5 21 ) 100)
( >= X6 0)
( <= ( + X6 61) Z)
( >= Y6 0)
( <= ( + Y6 89 ) 100)
( >= X7 0)
( <= ( + X7 2) Z)
( >= Y7 0)
( <= ( + Y7 3 ) 100)
( >= X8 0)
( <= ( + X8 53) Z)
( >= Y8 0)
( <= ( + Y8 33 ) 100)
( >= X9 0)
( <= ( + X9 77) Z)
( >= Y9 0)
( <= ( + Y9 92 ) 100)
( >= X10 0)
( <= ( + X10 27) Z)
( >= Y10 0)
( <= ( + Y10 86 ) 100)
( >= X11 0)
( <= ( + X11 22) Z)
( >= Y11 0)
( <= ( + Y11 43 ) 100)
( >= X12 0)
( <= ( + X12 26) Z)
( >= Y12 0)
( <= ( + Y12 2 ) 100)
( >= X13 0)
( <= ( + X13 36) Z)
( >= Y13 0)
( <= ( + Y13 99 ) 100)
( >= X14 0)
( <= ( + X14 3) Z)
( >= Y14 0)
( <= ( + Y14 63 ) 100)
) )
(minimize Z)
(check-sat)
